422 426 
478 482 
508 512 
538 542 
563 567 
595 599 
621 625 
647 651 
674 679 
704 709 
734 739 
764 769 
794 799 
824 829 
854 859 
884 889 
914 919 
944 949 
977 982 
1011 1016 
1044 1049 
1075 1080 
1106 1111 
1137 1142 
1168 1172 
1199 1203 
1230 1234 
1263 1267 
1323 1327 
1383 1387 
1447 1451 
